
Gurobi 10.0.0 (linux64) logging started Thu Nov 17 04:24:36 2022

Set parameter LogFile to value "../results/k04_n150_d015/k04_n157_d028_zeroin.i.2_A-MILO_log.txt"
Gurobi Optimizer version 10.0.0 build v10.0.0rc2 (linux64)

CPU model: Intel(R) Xeon(R) CPU E5-2630 v4 @ 2.20GHz, instruction set [SSE2|AVX|AVX2]
Thread count: 20 physical cores, 40 logical processors, using up to 10 threads

Optimize a model with 42649 rows, 4169 columns and 128104 nonzeros
Model fingerprint: 0x0f510ef1
Coefficient statistics:
  Matrix range     [1e+00, 1e+00]
  Objective range  [1e+00, 1e+00]
  Bounds range     [1e+00, 1e+00]
  RHS range        [1e+00, 2e+00]
Presolve removed 1261 rows and 144 columns
Presolve time: 0.06s
Presolved: 41388 rows, 4025 columns, 123900 nonzeros

Concurrent LP optimizer: primal simplex, dual simplex, and barrier
Showing barrier log only...

Ordering time: 0.00s

Barrier statistics:
 AA' NZ     : 5.135e+03
 Factor NZ  : 2.313e+04 (roughly 5 MB of memory)
 Factor Ops : 5.210e+05 (less than 1 second per iteration)
 Threads    : 1

                  Objective                Residual
Iter       Primal          Dual         Primal    Dual     Compl     Time
   0   6.63852086e+04  4.62683477e+02  2.81e+01 1.11e-16  8.99e+00     0s

Barrier performed 0 iterations in 0.12 seconds (0.10 work units)
Barrier solve interrupted - model solved by another algorithm


Solved with dual simplex
Iteration    Objective       Primal Inf.    Dual Inf.      Time
    1719    3.5410000e+03   0.000000e+00   0.000000e+00      0s

Use crossover to convert LP symmetric solution to basic solution...
Crossover log...

     312 PPushes remaining with PInf 0.0000000e+00                 0s
       0 PPushes remaining with PInf 0.0000000e+00                 0s

  Push phase complete: Pinf 0.0000000e+00, Dinf 0.0000000e+00      0s

Iteration    Objective       Primal Inf.    Dual Inf.      Time
    2034    3.5410000e+03   0.000000e+00   0.000000e+00      0s

Solved in 2034 iterations and 0.20 seconds (0.15 work units)
Optimal objective  3.541000000e+03
